DIM: 32
FLOW: 
0 0 0 0 0 0 0 0 0 0 0 0 0 0 0 0 0 0 0 0 0 0 0 0 0 0 0 0 0 0 0 0 
0 0 0 0 0 0 0 0 0 0 0 0 0 0 0 0 0 0 0 0 0 0 0 0 0 0 0 0 0 0 0 0 
0 0 0 0 0 0 0 0 0 0 0 0 0 0 0 0 0 0 0 0 0 0 0 0 0 0 0 0 0 0 0 0 
0 0 0 0 0 0 0 0 0 0 0 0 0 0 0 0 0 0 0 0 0 0 0 0 0 0 0 0 0 0 0 0 
0 0 0 0 0 0 0 0 0 0 0 0 0 0 0 0 0 0 0 0 0 0 0 0 0 0 0 0 0 0 0 0 
0 0 0 0 0 0 0 0 0 0 0 0 0 0 0 0 0 0 0 0 0 0 0 0 0 0 0 0 0 0 0 0 
0 0 0 0 0 0 0 0 1 0 0 0 0 0 0 0 0 0 5 0 0 0 0 0 0 0 0 0 0 0 0 0 
0 0 0 0 0 0 0 0 0 0 0 0 0 0 0 0 2 0 0 0 0 0 0 0 0 0 0 0 0 0 0 0 
0 0 0 0 0 0 1 0 0 0 0 0 0 0 0 0 0 0 1 0 0 0 0 0 0 0 0 0 0 0 0 0 
0 0 0 0 0 0 0 0 0 0 0 0 0 0 0 0 0 0 0 0 0 0 0 0 0 0 0 0 0 0 0 0 
0 0 0 0 0 0 0 0 0 0 0 0 0 0 0 0 0 0 0 0 0 0 0 0 0 0 0 0 0 0 0 0 
0 0 0 0 0 0 0 0 0 0 0 0 0 0 0 0 0 0 0 0 0 0 0 0 0 0 0 0 0 0 0 0 
0 0 0 0 0 0 0 0 0 0 0 0 0 2 0 0 0 0 0 0 0 0 0 0 0 0 0 0 0 0 0 0 
0 0 0 0 0 0 0 0 0 0 0 0 2 0 0 0 0 0 0 0 0 0 0 0 0 0 0 0 0 0 0 0 
0 0 0 0 0 0 0 0 0 0 0 0 0 0 0 0 0 0 0 0 0 0 0 0 0 0 0 0 0 0 0 0 
0 0 0 0 0 0 0 0 0 0 0 0 0 0 0 0 0 0 0 0 0 0 0 0 0 0 0 0 0 0 0 0 
0 0 0 0 0 0 0 2 0 0 0 0 0 0 0 0 0 0 0 0 0 0 0 0 0 0 0 0 0 0 0 0 
0 0 0 0 0 0 0 0 0 0 0 0 0 0 0 0 0 0 0 5 0 0 0 0 0 0 0 0 0 0 0 0 
0 0 0 0 0 0 5 0 1 0 0 0 0 0 0 0 0 0 0 0 0 0 0 0 0 0 0 0 0 0 0 0 
0 0 0 0 0 0 0 0 0 0 0 0 0 0 0 0 0 5 0 0 0 0 0 0 0 0 0 0 0 0 0 0 
0 0 0 0 0 0 0 0 0 0 0 0 0 0 0 0 0 0 0 0 0 0 0 0 0 0 0 0 0 0 0 0 
0 0 0 0 0 0 0 0 0 0 0 0 0 0 0 0 0 0 0 0 0 0 0 0 0 0 0 0 0 0 0 0 
0 0 0 0 0 0 0 0 0 0 0 0 0 0 0 0 0 0 0 0 0 0 0 0 0 0 0 0 0 0 0 0 
0 0 0 0 0 0 0 0 0 0 0 0 0 0 0 0 0 0 0 0 0 0 0 0 0 0 0 0 0 0 0 0 
0 0 0 0 0 0 0 0 0 0 0 0 0 0 0 0 0 0 0 0 0 0 0 0 0 0 0 0 0 0 0 0 
0 0 0 0 0 0 0 0 0 0 0 0 0 0 0 0 0 0 0 0 0 0 0 0 0 0 0 0 0 0 0 0 
0 0 0 0 0 0 0 0 0 0 0 0 0 0 0 0 0 0 0 0 0 0 0 0 0 0 0 0 0 0 0 0 
0 0 0 0 0 0 0 0 0 0 0 0 0 0 0 0 0 0 0 0 0 0 0 0 0 0 0 0 0 0 0 0 
0 0 0 0 0 0 0 0 0 0 0 0 0 0 0 0 0 0 0 0 0 0 0 0 0 0 0 0 0 0 0 0 
0 0 0 0 0 0 0 0 0 0 0 0 0 0 0 0 0 0 0 0 0 0 0 0 0 0 0 0 0 0 0 0 
0 0 0 0 0 0 0 0 0 0 0 0 0 0 0 0 0 0 0 0 0 0 0 0 0 0 0 0 0 0 0 0 
0 0 0 0 0 0 0 0 0 0 0 0 0 0 0 0 0 0 0 0 0 0 0 0 0 0 0 0 0 0 0 0 
FLOW: 
0 0 1 0 1 0 2 1 1 0 2 1 2 1 3 2 1 0 2 1 2 1 3 2 2 1 3 2 3 2 4 3 
0 1 0 0 1 2 0 1 1 2 0 1 2 3 1 2 1 2 0 1 2 3 1 2 2 3 1 2 3 4 2 3 
1 0 0 0 2 1 1 0 2 1 1 0 3 2 2 1 2 1 1 0 3 2 2 1 3 2 2 1 4 3 3 2 
0 1 1 2 0 0 0 1 1 2 2 3 0 1 1 2 1 2 2 3 0 1 1 2 2 3 3 4 1 2 2 3 
1 0 2 1 0 0 1 0 2 1 3 2 1 0 2 1 2 1 3 2 1 0 2 1 3 2 4 3 2 1 3 2 
1 2 0 1 0 1 0 0 2 3 1 2 1 2 0 1 2 3 1 2 1 2 0 1 3 4 2 3 2 3 1 2 
2 1 1 0 1 0 0 0 3 2 2 1 2 1 1 0 3 2 2 1 2 1 1 0 4 3 3 2 3 2 2 1 
0 1 1 2 1 2 2 3 0 0 0 1 0 1 1 2 1 2 2 3 2 3 3 4 0 1 1 2 1 2 2 3 
1 0 2 1 2 1 3 2 0 0 1 0 1 0 2 1 2 1 3 2 3 2 4 3 1 0 2 1 2 1 3 2 
1 2 0 1 2 3 1 2 0 1 0 0 1 2 0 1 2 3 1 2 3 4 2 3 1 2 0 1 2 3 1 2 
2 1 1 0 3 2 2 1 1 0 0 0 2 1 1 0 3 2 2 1 4 3 3 2 2 1 1 0 3 2 2 1 
1 2 2 3 0 1 1 2 0 1 1 2 0 0 0 1 2 3 3 4 1 2 2 3 1 2 2 3 0 1 1 2 
2 1 3 2 1 0 2 1 1 0 2 1 0 0 1 0 3 2 4 3 2 1 3 2 2 1 3 2 1 0 2 1 
2 3 1 2 1 2 0 1 1 2 0 1 0 1 0 0 3 4 2 3 2 3 1 2 2 3 1 2 1 2 0 1 
3 2 2 1 2 1 1 0 2 1 1 0 1 0 0 0 4 3 3 2 3 2 2 1 3 2 2 1 2 1 1 0 
0 1 1 2 1 2 2 3 1 2 2 3 2 3 3 4 0 0 0 1 0 1 1 2 0 1 1 2 1 2 2 3 
1 0 2 1 2 1 3 2 2 1 3 2 3 2 4 3 0 0 1 0 1 0 2 1 1 0 2 1 2 1 3 2 
1 2 0 1 2 3 1 2 2 3 1 2 3 4 2 3 0 1 0 0 1 2 0 1 1 2 0 1 2 3 1 2 
2 1 1 0 3 2 2 1 3 2 2 1 4 3 3 2 1 0 0 0 2 1 1 0 2 1 1 0 3 2 2 1 
1 2 2 3 0 1 1 2 2 3 3 4 1 2 2 3 0 1 1 2 0 0 0 1 1 2 2 3 0 1 1 2 
2 1 3 2 1 0 2 1 3 2 4 3 2 1 3 2 1 0 2 1 0 0 1 0 2 1 3 2 1 0 2 1 
2 3 1 2 1 2 0 1 3 4 2 3 2 3 1 2 1 2 0 1 0 1 0 0 2 3 1 2 1 2 0 1 
3 2 2 1 2 1 1 0 4 3 3 2 3 2 2 1 2 1 1 0 1 0 0 0 3 2 2 1 2 1 1 0 
1 2 2 3 2 3 3 4 0 1 1 2 1 2 2 3 0 1 1 2 1 2 2 3 0 0 0 1 0 1 1 2 
2 1 3 2 3 2 4 3 1 0 2 1 2 1 3 2 1 0 2 1 2 1 3 2 0 0 1 0 1 0 2 1 
2 3 1 2 3 4 2 3 1 2 0 1 2 3 1 2 1 2 0 1 2 3 1 2 0 1 0 0 1 2 0 1 
3 2 2 1 4 3 3 2 2 1 1 0 3 2 2 1 2 1 1 0 3 2 2 1 1 0 0 0 2 1 1 0 
2 3 3 4 1 2 2 3 1 2 2 3 0 1 1 2 1 2 2 3 0 1 1 2 0 1 1 2 0 0 0 1 
3 2 4 3 2 1 3 2 2 1 3 2 1 0 2 1 2 1 3 2 1 0 2 1 1 0 2 1 0 0 1 0 
3 4 2 3 2 3 1 2 2 3 1 2 1 2 0 1 2 3 1 2 1 2 0 1 1 2 0 1 0 1 0 0 
4 3 3 2 3 2 2 1 3 2 2 1 2 1 1 0 3 2 2 1 2 1 1 0 2 1 1 0 1 0 0 0 

OPT_OBJ: 2
OPT_SOLUTION: 
1 2 5 6 8 16 13 19 9 32 7 22 24 20 4 12 3 17 29 21 11 25 27 18 30 31 23 28 14 15 26 10 